# B3LYP/6-31G* em=GD3BJ opt(maxstep=5,notrust,maxcyc=80,gdiis) scf=xqc

Template file

0 1
[GEOMETRY]

