# B3LYP/6-31G* em=GD3BJ opt

Template file

0 1
[GEOMETRY]

